NAME : optical-integer.pruned_global_8.tour
TYPE : TOUR
DIMENSION : 174
TOUR_SECTION
1
56
57
58
59
60
61
62
63
64
65
66
67
68
69
70
71
72
73
74
75
76
77
78
79
80
81
82
83
84
85
87
90
91
94
95
104
105
107
108
109
112
130
2
39
55
97
103
111
129
132
133
134
136
139
142
143
147
150
151
152
153
156
157
3
8
9
12
13
16
17
20
21
24
25
28
29
32
33
36
42
46
52
99
100
101
106
110
118
119
121
122
123
124
128
135
140
141
159
160
162
163
164
167
169
173
174
4
7
10
11
14
15
18
19
22
23
26
27
30
31
34
35
40
43
49
53
54
86
131
144
148
149
154
155
158
5
37
38
41
44
45
47
50
51
88
89
92
93
96
98
113
114
116
125
126
137
161
165
166
168
170
171
172
6
48
102
115
117
120
127
138
145
146
-1
EOF
